generated by phonopy
   1.0
     0.0000000000000000    2.3727461164331638    2.3727461164331638
     2.3727461164331638    0.0000000000000000    2.3727461164331638
     2.3727461164331638    2.3727461164331638    0.0000000000000000
La H
   1   10
Direct
  0.0000000000000000  0.0000000000000000  0.0000000000000000
  0.3793901341240549  0.3793901341240549  0.3793901341240549
  0.8618295976278354  0.3793901341240549  0.3793901341240549
  0.3793901341240549  0.3793901341240549  0.8618295976278354
  0.3793901341240549  0.8618295976278354  0.3793901341240549
  0.1381704023721646  0.6206098658759451  0.6206098658759451
  0.6206098658759451  0.6206098658759451  0.6206098658759451
  0.6206098658759451  0.6206098658759451  0.1381704023721646
  0.6206098658759451  0.1381704023721646  0.6206098658759451
  0.7500000000000000  0.7500000000000000  0.7500000000000000
  0.2500000000000000  0.2500000000000000  0.2500000000000000
