generated by phonopy
   1.0
     0.0000000000000000    2.0217533056204497    2.0217533056204497
     2.0217533056204497    0.0000000000000000    2.0217533056204497
     2.0217533056204497    2.0217533056204497    0.0000000000000000
Al
   1
Direct
  0.0000000000000000  0.0000000000000000  0.0000000000000000
